50 997
403 886 814 1151 983 629 848 1074 839 819 1062 762 994 950 111 914 737 1049 1152 1110 973 474 824 1013 963 1101 1024 816 1063 575 1153 447 1117 910 1017 931 909 1126 1027 871 1052 891 375 1131 318 705 1048 908 1026 1061 
94 506 416 992 649 237 457 815 446 422 791 359 667 598 7 544 334 766 994 893 633 131 428 700 617 874 720 419 794 196 997 116 908 539 707 569 537 931 726 487 772 513 81 943 58 303 764 536 724 789 
